
******************************************************************************
This program contains Ipopt, a library for large-scale nonlinear optimization.
 Ipopt is released as open source code under the Eclipse Public License (EPL).
         For more information visit http://projects.coin-or.org/Ipopt
******************************************************************************

This is Ipopt version 3.12.6, running with linear solver ma57.

Number of nonzeros in equality constraint Jacobian...:        3
Number of nonzeros in inequality constraint Jacobian.:        0
Number of nonzeros in Lagrangian Hessian.............:        5

Total number of variables............................:        3
                     variables with only lower bounds:        0
                variables with lower and upper bounds:        3
                     variables with only upper bounds:        0
Total number of equality constraints.................:        1
Total number of inequality constraints...............:        0
        inequality constraints with only lower bounds:        0
   inequality constraints with lower and upper bounds:        0
        inequality constraints with only upper bounds:        0

iter    objective    inf_pr   inf_du lg(mu)  ||d||  lg(rg) alpha_du alpha_pr  ls
   0  1.0000000e+00 1.78e+01 1.96e+00  -1.0 0.00e+00    -  0.00e+00 0.00e+00   0
   1  1.4065832e-01 4.59e+00 8.45e-01  -1.0 8.64e-01    -  9.04e-01 1.00e+00h  1
   2  4.5940249e-02 6.68e-01 2.00e-01  -1.0 1.94e-01    -  1.00e+00 1.00e+00h  1
   3  3.3125209e-02 3.53e-02 2.96e-02  -1.7 4.77e-02    -  1.00e+00 1.00e+00h  1
   4  3.2574022e-02 5.24e-04 8.72e-04  -2.5 8.86e-03    -  1.00e+00 1.00e+00h  1
   5  3.2568206e-02 5.23e-07 9.28e-07  -3.8 3.36e-04    -  1.00e+00 1.00e+00h  1
   6  3.2568200e-02 1.24e-11 1.58e-11  -5.7 1.59e-06    -  1.00e+00 1.00e+00h  1
   7  3.2568200e-02 4.22e-15 1.49e-15  -8.6 1.54e-08    -  1.00e+00 1.00e+00h  1

Number of Iterations....: 7

                                   (scaled)                 (unscaled)
Objective...............:   3.2568200285970517e-02    3.2568200285970517e-02
Dual infeasibility......:   1.4946408544537422e-15    1.4946408544537422e-15
Constraint violation....:   4.2188474935755949e-15    4.2188474935755949e-15
Complementarity.........:   2.5059067747213103e-09    2.5059067747213103e-09
Overall NLP error.......:   2.5059067747213103e-09    2.5059067747213103e-09


Number of objective function evaluations             = 8
Number of objective gradient evaluations             = 8
Number of equality constraint evaluations            = 8
Number of inequality constraint evaluations          = 0
Number of equality constraint Jacobian evaluations   = 8
Number of inequality constraint Jacobian evaluations = 0
Number of Lagrangian Hessian evaluations             = 7
Total CPU secs in IPOPT (w/o function evaluations)   =      0.007
Total CPU secs in NLP function evaluations           =      0.000

EXIT: Optimal Solution Found.

************************ CUTEst statistics ************************


 Package used            :  IPOPT
 Problem                 :  HS60      
 # variables             =               3
 # constraints           =               1
 # objective functions   =        0.1700000E+02
 # objective gradients   =        0.9000000E+01
 # objective Hessians    =        0.8000000E+01
 # Hessian-vector prdct  =        0.0000000E+00
 # constraints functions =        0.1800000E+02
 # constraints gradients =        0.1000000E+02
 # constraints Hessians  =        0.8000000E+01
 Exit code               =               0
 Final f                 =   0.3256820E-01
 Set up time             =            0.00 seconds
 Solve time              =            0.01 seconds


******************************************************************

System Time =       0.0030000000 s.
